c This is COMiniSatPS.
c WARNING: for repeatability, setting FPU to use double precision
c ============================[ Problem Statistics ]=============================
c |                                                                             |
c |  Number of variables:       4627396                                         |
c |  Number of clauses:        24921123                                         |
c |  Parse time:                   6.15 s                                       |
c |                                                                             |
c ============================[ Search Statistics ]==============================
c | Conflicts |          ORIGINAL         |          LEARNT          | Progress |
c |           |    Vars  Clauses Literals |    Limit  Clauses Lit/Cl |          |
c ===============================================================================
c Switched to VSIDS.
c Switched to LRB.
c Switched to VSIDS.
c Switched to LRB.
c Switched to VSIDS.
c Switched to LRB.
c Switched to VSIDS.
c Switched to LRB.
c Switched to VSIDS.
c Switched to LRB.
c Switched to VSIDS.
c Switched to LRB.
c Switched to VSIDS.
c Switched to LRB.
c Switched to VSIDS.
c Switched to LRB.
c Switched to VSIDS.
c Switched to LRB.
c Switched to VSIDS.
c Switched to LRB.
c Switched to VSIDS.
c Switched to LRB.
c Switched to VSIDS.
c Switched to LRB.
c Switched to VSIDS.
c Switched to LRB.
c Switched to VSIDS.
c Switched to LRB.
c Switched to VSIDS.
c Switched to LRB.
c Switched to VSIDS.
c Switched to LRB.
c Switched to VSIDS.
c Switched to LRB.
c Switched to VSIDS.
c Switched to LRB.
c Switched to VSIDS.
c Switched to LRB.
c ===============================================================================
c restarts              : 19201
c conflicts             : 5488419        (1508 /sec)
c decisions             : 2387278363     (0.00 % random) (655964 /sec)
c propagations          : 12104744170    (3326080 /sec)
c conflict literals     : 95034105       (16.70 % deleted)
c Memory used           : 3692.00 MB
c CPU time              : 3639.34 s

s UNKNOWN
